324
259
286
122
123
73
125
171
191
65
420
85
51
146
126
123
272
187
385
135
217
71
71
84
98
342
106
108
63
86
81
173
45
92
115
244
201
51
71
54
171
246
0
224
45
723
95
58
122
109
129
251
286
167
105
167
255
47
66
202
105
222
176
175
0
42
145
155
92
104
102
159
99
180
389
662
275
121
102
96
81
114
93
82
299
91
141
74
171
169
113
88
102
101
101
83
0
177
139
155
